param set_len = 16;
param target := 104859126;
set values := 7634803, 31759958, 7453553, 10362151, 13663286, 6555808, 26641814, 61927, 29374762, 16371684, 26264126, 27329447, 16924428, 4532167, 7011563, 13168828, ;
